data/solutions/recovery/degenerate/moderate/flexible/degenerate_moderate_instance1/12.sol
Elapsed time: 0.1
Upper bound: 237146.0
Planning weighted value: 1655920.0
C[0]=237146.0
C[1]=237135.0
C[2]=236855.0
y[0]=1
y[1]=2
y[2]=0
y[3]=0
y[4]=0
y[5]=1
y[6]=1
y[7]=1
y[8]=2
y[9]=2
y[10]=1
y[11]=1
y[12]=1
y[13]=1
y[14]=1
y[15]=0
y[16]=0
y[17]=0
y[18]=2
y[19]=2
y[20]=2
y[21]=0
