data/solutions/recovery/degenerate/moderate/flexible/degenerate_moderate_instance1/12.log

Log started (V12.6.3.0) Sat Apr 21 11:01:57 2018

New value for default parallel thread count: 1

Problem '/tmp/tmpKnIqEq.pyomo.lp' read.
Read time = 0.00 sec. (0.02 ticks)

Problem name         : /tmp/tmpKnIqEq.pyomo.lp
Objective sense      : Minimize
Variables            :      71  [Nneg: 1,  Binary: 66,  General Integer: 4]
Objective nonzeros   :       1
Linear constraints   :      51  [Less: 25,  Equal: 26]
  Nonzeros           :    1019
  RHS nonzeros       :      45

Variables            : Min LB: 0.000000         Max UB: 1.000000       
Objective nonzeros   : Min   : 1.000000         Max   : 1.000000       
Linear constraints   :
  Nonzeros           : Min   : 1.000000         Max   : 93707.00       
  RHS nonzeros       : Min   : 1.000000         Max   : 3.000000       
Tried aggregator 2 times.
MIP Presolve eliminated 22 rows and 3 columns.
Aggregator did 4 substitutions.
Reduced MIP has 25 rows, 64 columns, and 167 nonzeros.
Reduced MIP has 63 binaries, 1 generals, 0 SOSs, and 0 indicators.
Presolve time = 0.00 sec. (0.42 ticks)
Found incumbent of value 711136.000000 after 0.00 sec. (0.63 ticks)
Probing time = 0.00 sec. (0.04 ticks)
Cover probing fixed 0 vars, tightened 6 bounds.
Tried aggregator 1 time.
Reduced MIP has 25 rows, 64 columns, and 167 nonzeros.
Reduced MIP has 63 binaries, 1 generals, 0 SOSs, and 0 indicators.
Presolve time = 0.00 sec. (0.10 ticks)
Probing time = 0.00 sec. (0.03 ticks)
Clique table members: 21.
MIP emphasis: balance optimality and feasibility.
MIP search method: dynamic search.
Parallel mode: none, using 1 thread.
Root relaxation solution time = 0.00 sec. (0.05 ticks)

        Nodes                                         Cuts/
   Node  Left     Objective  IInf  Best Integer    Best Bound    ItCnt     Gap

*     0+    0                       711136.0000    93707.0000            86.82%
      0     0   237045.3333     5   711136.0000   237045.3333        4   66.67%
*     0+    0                       265722.0000   237045.3333            10.79%
      0     0   237046.0000     6   265722.0000      Fract: 2       17   10.79%
*     0+    0                       241970.0000   237046.0000             2.03%
      0     0   237046.0000     8   241970.0000       Cuts: 4       24    2.03%
*     0+    0                       241563.0000   237046.0000             1.87%
      0     2   237046.0000     8   241563.0000   237046.0000       24    1.87%
Elapsed time = 0.01 sec. (2.25 ticks, tree = 0.01 MB, solutions = 3)
*    20+   11                       239350.0000   237046.0000             0.96%
*    24    11      integral     0   237860.0000   237046.0000      110    0.34%
*   150    21      integral     0   237536.0000   237046.0000      692    0.21%
*   704    17      integral     0   237146.0000   237046.0000     3222    0.04%

Cover cuts applied:  59
Mixed integer rounding cuts applied:  1

Root node processing (before b&c):
  Real time             =    0.01 sec. (2.24 ticks)
Sequential b&c:
  Real time             =    0.06 sec. (49.15 ticks)
                          ------------
Total (root+branch&cut) =    0.07 sec. (51.39 ticks)

Solution pool: 7 solutions saved.

MIP - Integer optimal, tolerance (0.0001/1e-06):  Objective =  2.3714600000e+05
Current MIP best bound =  2.3712500000e+05 (gap = 21, 0.01%)
Solution time =    0.07 sec.  Iterations = 4802  Nodes = 1053 (2)
Deterministic time = 51.39 ticks  (771.20 ticks/sec)


Incumbent solution written to file '/tmp/tmpNooiaR.cplex.sol'.
